p edge 25 28
e 0 5
e 0 7
e 0 9
e 0 11
e 0 14
e 1 15
e 1 23
e 2 22
e 3 11
e 3 21
e 5 20
e 5 23
e 6 8
e 6 19
e 7 17
e 7 19
e 7 20
e 8 18
e 9 22
e 10 24
e 11 15
e 12 16
e 14 15
e 14 23
e 15 20
e 17 20
e 18 19
e 21 22
